151833 
84195 45
20
5
10
9
74
38
39
33
32
19
31
30
29
26
27
28
43
42
54
53
51
64
72
65
67
68
69
47
48
44
45
46
24
25
21
22
23
1
2
3
4
6
7
8
75

67638 31
52
49
50
66
56
55
58
57
71
73
63
62
61
59
60
41
40
34
35
36
37
18
17
16
15
11
12
13
14
0
70

